DIMACS2
20 42 297 234 109 295 271 149 83 49 228 312 315 26 242 16 113 243 41 273 240
p edge 320 2264
e 0 281 5.0
e 0 206 1.0
e 0 4 3.0
e 0 300 6.0
e 0 141 1.0
e 0 99 1.0
e 0 5 4.0
e 0 100 5.0
e 1 146 1.0
e 1 286 1.0
e 1 202 1.0
e 2 176 1.0
e 2 168 2.0
e 2 219 2.0
e 3 115 1.0
e 3 302 1.0
e 3 303 1.0
e 3 139 10.0
e 3 171 3.0
e 3 29 8.0
e 3 201 3.0
e 3 38 5.0
e 3 213 3.0
e 3 152 5.0
e 3 108 3.0
e 4 203 1.0
e 4 173 1.0
e 5 107 3.0
e 5 262 1.0
e 6 262 2.0
e 6 78 1.0
e 6 282 1.0
e 6 89 3.0
e 6 295 43.0
e 6 156 3.0
e 7 56 1.0
e 7 105 1.0
e 8 291 1.0
e 8 0 1.0
e 9 249 1.0
e 9 301 1.0
e 9 282 1.0
e 10 179 1.0
e 10 68 1.0
e 11 182 1.0
e 11 244 1.0
e 11 83 25.0
e 11 12 1.0
e 11 228 22.0
e 11 301 2.0
e 12 212 5.0
e 12 160 1.0
e 12 216 2.0
e 12 90 1.0
e 12 40 1.0
e 13 57 3.0
e 13 8 4.0
e 13 196 6.0
e 13 279 1.0
e 13 145 4.0
e 13 59 4.0
e 13 223 2.0
e 13 146 6.0
e 13 163 5.0
e 14 231 1.0
e 14 275 2.0
e 14 40 5.0
e 14 304 4.0
e 14 270 1.0
e 14 31 3.0
e 14 287 1.0
e 14 212 5.0
e 14 45 3.0
e 14 123 3.0
e 15 180 1.0
e 15 78 1.0
e 15 250 1.0
e 16 211 2.0
e 16 284 27.0
e 16 251 44.0
e 16 215 17.0
e 16 239 5.0
e 16 119 20.0
e 16 116 30.0
e 16 39 32.0
e 16 144 30.0
e 16 186 6.0
e 16 182 45.0
e 16 25 38.0
e 16 167 39.0
e 16 302 12.0
e 16 283 49.0
e 16 48 33.0
e 16 293 23.0
e 16 56 24.0
e 16 266 48.0
e 16 204 16.0
e 16 147 34.0
e 16 7 26.0
e 16 196 16.0
e 16 35 5.0
e 16 76 31.0
e 16 15 15.0
e 16 45 27.0
e 16 183 5.0
e 16 301 8.0
e 16 161 32.0
e 16 145 7.0
e 16 23 8.0
e 16 285 6.0
e 16 259 21.0
e 16 99 1.0
e 16 89 45.0
e 16 184 25.0
e 16 3 5.0
e 16 207 26.0
e 16 185 49.0
e 16 59 38.0
e 16 187 7.0
e 16 12 23.0
e 16 127 33.0
e 16 30 41.0
e 16 216 13.0
e 16 8 19.0
e 16 189 22.0
e 16 29 1.0
e 16 60 31.0
e 16 264 45.0
e 16 221 43.0
e 16 188 12.0
e 16 300 1.0
e 16 270 4.0
e 16 249 47.0
e 16 201 27.0
e 16 130 23.0
e 16 152 4.0
e 16 129 3.0
e 16 17 18.0
e 16 315 15.0
e 16 151 49.0
e 16 199 47.0
e 16 281 35.0
e 16 140 32.0
e 16 197 21.0
e 16 260 36.0
e 16 166 21.0
e 16 217 48.0
e 16 153 46.0
e 16 100 12.0
e 16 272 16.0
e 16 52 8.0
e 16 238 29.0
e 16 146 15.0
e 16 205 10.0
e 16 208 37.0
e 16 44 14.0
e 16 213 46.0
e 17 242 49.0
e 17 234 11.0
e 17 168 2.0
e 17 100 5.0
e 17 81 2.0
e 18 23 2.0
e 18 40 1.0
e 18 45 1.0
e 18 194 1.0
e 18 19 1.0
e 19 79 1.0
e 20 129 1.0
e 20 241 2.0
e 20 295 41.0
e 20 171 2.0
e 20 16 34.0
e 21 276 2.0
e 21 172 2.0
e 21 30 2.0
e 21 259 2.0
e 21 311 1.0
e 22 264 2.0
e 22 51 1.0
e 22 230 3.0
e 22 239 2.0
e 22 318 1.0
e 22 181 2.0
e 23 89 1.0
e 24 48 2.0
e 24 217 3.0
e 24 209 1.0
e 24 92 1.0
e 24 314 1.0
e 25 119 1.0
e 25 230 2.0
e 25 46 2.0
e 25 273 43.0
e 26 237 6.0
e 26 115 43.0
e 26 198 2.0
e 26 311 20.0
e 26 199 45.0
e 26 117 16.0
e 26 100 23.0
e 26 232 32.0
e 26 242 7.0
e 26 236 43.0
e 26 259 15.0
e 26 238 6.0
e 26 98 25.0
e 26 118 48.0
e 26 67 11.0
e 26 218 46.0
e 26 183 40.0
e 26 103 9.0
e 26 279 20.0
e 26 97 20.0
e 26 94 10.0
e 26 16 5.0
e 26 213 6.0
e 26 88 21.0
e 26 43 38.0
e 26 193 49.0
e 26 6 30.0
e 26 217 3.0
e 26 50 14.0
e 26 204 7.0
e 26 91 30.0
e 26 63 13.0
e 26 64 20.0
e 26 48 16.0
e 26 278 38.0
e 26 219 32.0
e 26 59 28.0
e 26 250 7.0
e 26 23 13.0
e 26 233 39.0
e 26 54 13.0
e 26 134 38.0
e 26 57 1.0
e 26 35 14.0
e 26 139 11.0
e 26 195 12.0
e 26 225 32.0
e 26 293 16.0
e 26 294 5.0
e 26 295 15.0
e 26 15 2.0
e 26 290 45.0
e 26 4 48.0
e 26 44 32.0
e 26 119 3.0
e 26 111 21.0
e 26 18 20.0
e 26 270 24.0
e 26 3 25.0
e 26 45 5.0
e 26 147 9.0
e 26 275 24.0
e 26 309 3.0
e 26 110 26.0
e 26 263 23.0
e 26 109 32.0
e 26 214 40.0
e 26 271 8.0
e 26 234 38.0
e 26 301 25.0
e 26 71 12.0
e 26 104 3.0
e 26 148 25.0
e 26 123 33.0
e 26 24 1.0
e 26 99 48.0
e 26 5 36.0
e 26 306 33.0
e 26 101 36.0
e 26 112 6.0
e 26 163 16.0
e 27 275 1.0
e 27 105 1.0
e 28 105 1.0
e 28 263 2.0
e 28 123 1.0
e 28 35 1.0
e 28 203 1.0
e 29 243 15.0
e 29 283 7.0
e 29 21 7.0
e 29 159 6.0
e 29 139 10.0
e 29 316 11.0
e 29 274 10.0
e 29 36 8.0
e 29 40 11.0
e 29 194 11.0
e 29 113 46.0
e 29 202 5.0
e 29 81 10.0
e 29 175 1.0
e 29 247 8.0
e 29 64 4.0
e 29 267 11.0
e 29 153 6.0
e 29 35 4.0
e 30 64 1.0
e 31 128 1.0
e 32 141 1.0
e 32 277 1.0
e 32 6 1.0
e 33 284 2.0
e 33 283 3.0
e 34 288 1.0
e 34 42 5.0
e 34 164 1.0
e 35 162 1.0
e 36 312 29.0
e 36 155 1.0
e 36 176 2.0
e 36 138 3.0
e 36 108 2.0
e 36 68 1.0
e 36 45 6.0
e 36 161 3.0
e 36 133 5.0
e 36 18 1.0
e 37 38 1.0
e 38 281 1.0
e 39 259 1.0
e 39 162 5.0
e 39 108 2.0
e 39 314 1.0
e 39 40 4.0
e 39 186 5.0
e 39 276 1.0
e 39 289 1.0
e 39 5 1.0
e 39 203 5.0
e 40 267 1.0
e 41 269 21.0
e 41 217 13.0
e 41 212 7.0
e 41 135 24.0
e 41 106 40.0
e 41 178 19.0
e 41 49 38.0
e 41 44 22.0
e 41 137 29.0
e 41 228 48.0
e 41 313 16.0
e 41 270 23.0
e 41 105 20.0
e 41 185 11.0
e 41 301 21.0
e 41 165 41.0
e 41 77 3.0
e 41 229 3.0
e 41 57 23.0
e 41 139 28.0
e 41 294 29.0
e 41 84 15.0
e 41 204 33.0
e 41 46 42.0
e 41 167 17.0
e 41 30 26.0
e 41 247 33.0
e 41 31 17.0
e 41 143 40.0
e 41 286 27.0
e 41 215 22.0
e 41 58 15.0
e 41 68 37.0
e 41 245 46.0
e 41 216 26.0
e 41 202 37.0
e 41 11 17.0
e 41 140 7.0
e 41 94 16.0
e 41 264 34.0
e 41 98 31.0
e 41 234 21.0
e 41 249 21.0
e 41 71 41.0
e 41 288 11.0
e 41 1 30.0
e 41 87 35.0
e 41 291 36.0
e 41 300 37.0
e 41 213 41.0
e 41 112 3.0
e 41 186 30.0
e 41 136 48.0
e 41 305 10.0
e 41 21 40.0
e 41 50 1.0
e 41 16 38.0
e 41 311 15.0
e 41 73 2.0
e 41 163 45.0
e 41 82 24.0
e 41 59 4.0
e 41 47 3.0
e 41 271 49.0
e 41 80 27.0
e 41 147 34.0
e 41 281 7.0
e 41 191 33.0
e 41 267 32.0
e 41 166 10.0
e 41 45 22.0
e 41 100 48.0
e 41 108 18.0
e 41 260 5.0
e 41 256 39.0
e 41 221 12.0
e 41 282 3.0
e 41 101 24.0
e 41 171 15.0
e 41 122 44.0
e 41 295 23.0
e 42 75 11.0
e 42 204 46.0
e 42 170 24.0
e 42 138 23.0
e 42 200 43.0
e 42 89 12.0
e 42 123 7.0
e 42 129 44.0
e 42 238 30.0
e 42 15 5.0
e 42 122 36.0
e 42 90 33.0
e 42 140 12.0
e 42 139 49.0
e 42 32 3.0
e 42 96 42.0
e 42 12 37.0
e 42 128 48.0
e 42 0 5.0
e 42 154 27.0
e 42 296 39.0
e 42 284 25.0
e 42 28 14.0
e 42 38 17.0
e 42 177 5.0
e 42 292 34.0
e 42 265 28.0
e 42 237 11.0
e 42 192 6.0
e 42 149 11.0
e 42 157 5.0
e 42 259 2.0
e 42 108 3.0
e 42 306 22.0
e 42 55 39.0
e 42 146 11.0
e 42 317 10.0
e 42 299 17.0
e 42 150 37.0
e 42 247 10.0
e 42 58 16.0
e 42 313 37.0
e 42 41 38.0
e 42 35 14.0
e 42 172 30.0
e 42 119 41.0
e 42 81 17.0
e 42 298 1.0
e 42 133 43.0
e 42 165 44.0
e 42 143 39.0
e 42 26 35.0
e 42 141 41.0
e 42 114 24.0
e 42 228 10.0
e 42 253 17.0
e 42 184 46.0
e 42 27 19.0
e 42 261 25.0
e 42 273 38.0
e 42 215 20.0
e 42 98 48.0
e 42 63 14.0
e 42 80 13.0
e 42 248 33.0
e 42 43 36.0
e 42 189 32.0
e 42 205 17.0
e 42 316 13.0
e 42 91 39.0
e 42 82 15.0
e 42 187 39.0
e 42 29 22.0
e 42 84 44.0
e 42 16 43.0
e 42 270 3.0
e 42 5 24.0
e 42 69 40.0
e 42 234 42.0
e 42 178 27.0
e 43 24 2.0
e 44 19 1.0
e 45 278 3.0
e 46 111 1.0
e 47 247 1.0
e 48 88 2.0
e 49 91 26.0
e 49 288 28.0
e 49 268 7.0
e 49 169 29.0
e 49 146 16.0
e 49 281 28.0
e 49 181 48.0
e 49 235 43.0
e 49 10 39.0
e 49 150 41.0
e 49 7 33.0
e 49 88 4.0
e 49 224 48.0
e 49 151 20.0
e 49 204 43.0
e 49 56 27.0
e 49 187 45.0
e 49 34 48.0
e 49 63 27.0
e 49 222 15.0
e 49 82 14.0
e 49 206 16.0
e 49 37 28.0
e 49 315 9.0
e 49 107 9.0
e 49 121 40.0
e 49 280 43.0
e 49 254 32.0
e 49 43 23.0
e 49 290 15.0
e 49 201 40.0
e 49 100 3.0
e 49 93 37.0
e 49 313 42.0
e 49 17 47.0
e 49 239 24.0
e 49 298 27.0
e 49 5 25.0
e 49 270 39.0
e 49 83 25.0
e 49 1 18.0
e 49 89 20.0
e 49 62 28.0
e 49 79 17.0
e 49 289 9.0
e 49 53 4.0
e 49 124 26.0
e 49 160 40.0
e 49 76 14.0
e 49 126 36.0
e 49 266 2.0
e 49 22 7.0
e 49 210 47.0
e 49 44 41.0
e 49 282 35.0
e 49 64 23.0
e 49 58 29.0
e 49 182 48.0
e 49 8 24.0
e 49 152 41.0
e 49 299 37.0
e 49 221 41.0
e 49 114 26.0
e 49 183 22.0
e 49 35 21.0
e 49 244 3.0
e 49 133 37.0
e 49 153 26.0
e 49 175 25.0
e 49 195 9.0
e 49 208 41.0
e 49 2 34.0
e 49 90 47.0
e 49 87 49.0
e 49 242 46.0
e 49 28 35.0
e 49 85 23.0
e 49 38 24.0
e 49 300 19.0
e 50 10 1.0
e 51 302 1.0
e 51 257 1.0
e 51 258 2.0
e 52 299 1.0
e 52 111 1.0
e 53 241 12.0
e 53 96 3.0
e 53 301 2.0
e 53 234 35.0
e 53 160 1.0
e 54 198 2.0
e 54 216 5.0
e 54 220 2.0
e 54 305 1.0
e 54 13 2.0
e 55 46 1.0
e 55 84 1.0
e 55 186 1.0
e 55 237 1.0
e 55 316 1.0
e 56 90 1.0
e 57 160 1.0
e 57 197 1.0
e 58 136 1.0
e 59 174 1.0
e 60 61 2.0
e 60 32 2.0
e 60 275 1.0
e 60 133 1.0
e 61 289 2.0
e 61 17 2.0
e 62 223 1.0
e 62 122 1.0
e 62 272 1.0
e 63 269 2.0
e 64 167 2.0
e 64 177 1.0
e 65 235 2.0
e 65 255 1.0
e 66 125 1.0
e 67 30 3.0
e 67 37 2.0
e 67 282 1.0
e 67 287 1.0
e 68 256 1.0
e 69 47 1.0
e 69 92 2.0
e 69 157 2.0
e 70 68 1.0
e 71 271 17.0
e 71 200 1.0
e 71 241 6.0
e 71 82 3.0
e 72 66 1.0
e 72 287 1.0
e 72 56 1.0
e 73 160 1.0
e 73 180 2.0
e 73 144 1.0
e 73 199 1.0
e 74 202 2.0
e 75 122 1.0
e 75 310 1.0
e 75 209 1.0
e 75 306 2.0
e 75 78 1.0
e 76 60 1.0
e 77 318 1.0
e 77 179 1.0
e 78 181 1.0
e 79 228 31.0
e 80 308 1.0
e 81 272 1.0
e 81 238 2.0
e 81 246 2.0
e 82 95 1.0
e 83 139 6.0
e 83 84 9.0
e 83 215 5.0
e 83 29 22.0
e 83 57 49.0
e 83 230 31.0
e 83 6 40.0
e 83 193 7.0
e 83 190 28.0
e 83 188 15.0
e 83 56 35.0
e 83 286 47.0
e 83 90 26.0
e 83 318 40.0
e 83 4 45.0
e 83 141 21.0
e 83 229 38.0
e 83 307 17.0
e 83 46 13.0
e 83 265 35.0
e 83 68 31.0
e 83 186 43.0
e 83 254 39.0
e 83 103 23.0
e 83 289 33.0
e 83 128 39.0
e 83 80 2.0
e 83 62 20.0
e 83 44 45.0
e 83 131 41.0
e 83 298 10.0
e 83 109 5.0
e 83 311 7.0
e 83 151 12.0
e 83 301 21.0
e 83 231 2.0
e 83 77 9.0
e 83 5 15.0
e 83 291 48.0
e 83 149 1.0
e 83 88 46.0
e 83 293 20.0
e 83 78 42.0
e 83 292 44.0
e 83 169 16.0
e 83 225 33.0
e 83 61 1.0
e 83 110 3.0
e 83 30 16.0
e 83 294 11.0
e 83 271 30.0
e 83 260 1.0
e 83 87 22.0
e 83 249 47.0
e 83 269 3.0
e 83 250 49.0
e 83 7 31.0
e 83 308 28.0
e 83 170 36.0
e 83 74 3.0
e 83 145 6.0
e 83 97 9.0
e 83 22 17.0
e 83 251 36.0
e 83 85 35.0
e 83 32 46.0
e 83 43 23.0
e 83 175 32.0
e 83 302 7.0
e 83 270 24.0
e 83 89 38.0
e 83 58 17.0
e 83 194 13.0
e 83 140 17.0
e 83 184 15.0
e 83 237 49.0
e 83 86 23.0
e 83 228 37.0
e 83 240 39.0
e 84 205 2.0
e 85 51 2.0
e 86 84 1.0
e 86 201 8.0
e 87 16 5.0
e 87 263 1.0
e 87 280 3.0
e 88 188 2.0
e 88 8 1.0
e 89 128 1.0
e 89 227 3.0
e 89 50 5.0
e 89 278 5.0
e 90 85 1.0
e 91 167 1.0
e 92 30 1.0
e 92 53 2.0
e 92 140 2.0
e 93 151 1.0
e 94 205 2.0
e 94 303 1.0
e 95 69 1.0
e 96 144 1.0
e 96 92 1.0
e 96 305 1.0
e 96 306 2.0
e 97 151 1.0
e 97 33 1.0
e 97 138 2.0
e 97 63 1.0
e 98 234 13.0
e 98 115 2.0
e 98 61 5.0
e 98 15 4.0
e 98 184 5.0
e 98 11 1.0
e 98 232 1.0
e 99 93 1.0
e 100 91 5.0
e 100 90 2.0
e 100 229 1.0
e 100 18 3.0
e 100 173 1.0
e 101 316 1.0
e 101 182 2.0
e 101 290 1.0
e 102 108 2.0
e 102 249 1.0
e 102 58 2.0
e 103 244 1.0
e 104 114 2.0
e 104 290 1.0
e 105 246 1.0
e 106 161 11.0
e 106 133 1.0
e 107 131 1.0
e 108 304 3.0
e 109 38 14.0
e 109 305 13.0
e 109 124 36.0
e 109 291 12.0
e 109 259 11.0
e 109 98 37.0
e 109 147 35.0
e 109 215 7.0
e 109 37 8.0
e 109 110 23.0
e 109 60 47.0
e 109 202 46.0
e 109 63 46.0
e 109 286 32.0
e 109 9 2.0
e 109 205 4.0
e 109 34 39.0
e 109 189 27.0
e 109 306 38.0
e 109 272 2.0
e 109 66 32.0
e 109 300 29.0
e 109 292 30.0
e 109 139 33.0
e 109 240 48.0
e 109 216 28.0
e 109 92 38.0
e 109 250 13.0
e 109 235 44.0
e 109 274 5.0
e 109 39 30.0
e 109 188 3.0
e 109 74 26.0
e 109 35 34.0
e 109 217 16.0
e 109 187 34.0
e 109 197 46.0
e 109 146 7.0
e 109 307 33.0
e 109 81 34.0
e 109 283 29.0
e 109 164 7.0
e 109 285 23.0
e 109 31 13.0
e 109 168 29.0
e 109 95 35.0
e 109 67 22.0
e 109 10 36.0
e 109 301 20.0
e 109 245 14.0
e 109 148 40.0
e 109 114 43.0
e 109 254 30.0
e 109 169 9.0
e 109 287 31.0
e 109 234 5.0
e 109 145 11.0
e 109 137 12.0
e 109 165 3.0
e 109 142 25.0
e 109 288 29.0
e 109 198 35.0
e 109 134 18.0
e 109 231 20.0
e 109 79 19.0
e 109 36 10.0
e 109 90 41.0
e 109 252 33.0
e 109 49 10.0
e 109 199 41.0
e 109 264 47.0
e 109 40 41.0
e 109 108 8.0
e 109 253 33.0
e 109 315 43.0
e 109 295 28.0
e 109 257 34.0
e 110 30 1.0
e 110 255 1.0
e 110 217 1.0
e 111 101 3.0
e 112 146 1.0
e 112 298 1.0
e 112 132 1.0
e 113 290 7.0
e 113 237 22.0
e 113 94 23.0
e 113 175 30.0
e 113 127 9.0
e 113 142 39.0
e 113 171 3.0
e 113 133 28.0
e 113 230 32.0
e 113 25 40.0
e 113 295 20.0
e 113 4 1.0
e 113 189 35.0
e 113 215 43.0
e 113 289 8.0
e 113 181 45.0
e 113 172 40.0
e 113 259 31.0
e 113 63 1.0
e 113 115 41.0
e 113 73 34.0
e 113 306 45.0
e 113 71 48.0
e 113 157 48.0
e 113 3 15.0
e 113 193 7.0
e 113 35 12.0
e 113 109 33.0
e 113 169 15.0
e 113 90 2.0
e 113 8 49.0
e 113 313 6.0
e 113 182 48.0
e 113 246 38.0
e 113 86 47.0
e 113 128 33.0
e 113 45 10.0
e 113 310 44.0
e 113 26 32.0
e 113 158 29.0
e 113 14 28.0
e 113 66 20.0
e 113 270 48.0
e 113 114 27.0
e 113 233 19.0
e 113 163 20.0
e 113 179 4.0
e 113 48 29.0
e 113 318 33.0
e 113 20 7.0
e 113 151 38.0
e 113 216 42.0
e 113 261 43.0
e 113 232 31.0
e 113 59 32.0
e 113 229 33.0
e 113 205 28.0
e 113 260 26.0
e 113 188 8.0
e 113 51 40.0
e 113 149 49.0
e 113 203 38.0
e 113 82 9.0
e 113 164 8.0
e 113 192 13.0
e 113 52 32.0
e 113 87 8.0
e 113 316 29.0
e 113 280 36.0
e 113 183 18.0
e 113 9 11.0
e 113 80 4.0
e 113 107 46.0
e 113 186 26.0
e 113 190 43.0
e 113 21 38.0
e 113 152 31.0
e 113 314 38.0
e 114 224 1.0
e 115 295 29.0
e 116 226 1.0
e 116 267 1.0
e 117 73 1.0
e 118 304 2.0
e 118 45 2.0
e 119 317 1.0
e 120 91 1.0
e 120 248 1.0
e 121 244 1.0
e 121 7 1.0
e 122 45 1.0
e 123 95 1.0
e 124 119 1.0
e 125 299 1.0
e 125 265 2.0
e 125 97 3.0
e 126 288 1.0
e 127 303 2.0
e 128 285 1.0
e 129 268 2.0
e 129 199 1.0
e 129 292 1.0
e 130 19 1.0
e 131 259 1.0
e 132 215 1.0
e 132 141 1.0
e 133 264 2.0
e 134 0 5.0
e 134 123 2.0
e 134 284 1.0
e 134 136 1.0
e 135 74 2.0
e 135 206 1.0
e 135 82 1.0
e 135 109 44.0
e 136 244 2.0
e 136 16 40.0
e 136 278 1.0
e 137 13 5.0
e 137 317 3.0
e 137 170 1.0
e 137 2 1.0
e 138 66 1.0
e 139 227 8.0
e 139 293 8.0
e 139 269 1.0
e 139 175 3.0
e 139 46 9.0
e 139 66 3.0
e 139 71 11.0
e 139 281 10.0
e 139 17 4.0
e 139 43 12.0
e 139 81 4.0
e 139 20 12.0
e 139 56 9.0
e 140 27 1.0
e 141 258 1.0
e 142 127 1.0
e 142 242 46.0
e 142 204 1.0
e 142 282 1.0
e 143 43 1.0
e 143 235 1.0
e 143 128 1.0
e 143 95 1.0
e 144 38 1.0
e 144 61 1.0
e 144 263 1.0
e 145 237 2.0
e 145 200 3.0
e 145 275 3.0
e 145 266 3.0
e 145 151 2.0
e 145 305 1.0
e 145 43 4.0
e 146 119 1.0
e 147 224 1.0
e 148 67 1.0
e 148 35 1.0
e 148 188 1.0
e 149 13 46.0
e 149 287 49.0
e 149 81 27.0
e 149 97 41.0
e 149 250 13.0
e 149 185 2.0
e 149 195 2.0
e 149 24 14.0
e 149 6 16.0
e 149 23 6.0
e 149 120 45.0
e 149 104 42.0
e 149 138 5.0
e 149 151 34.0
e 149 207 7.0
e 149 153 41.0
e 149 43 11.0
e 149 189 40.0
e 149 84 34.0
e 149 116 32.0
e 149 276 5.0
e 149 308 16.0
e 149 82 29.0
e 149 52 19.0
e 149 87 1.0
e 149 229 16.0
e 149 196 11.0
e 149 125 43.0
e 149 8 4.0
e 149 137 9.0
e 149 123 9.0
e 149 99 46.0
e 149 184 42.0
e 149 277 44.0
e 149 313 5.0
e 149 236 20.0
e 149 92 43.0
e 149 79 3.0
e 149 98 13.0
e 149 191 19.0
e 149 270 22.0
e 149 285 28.0
e 149 122 14.0
e 149 160 42.0
e 149 176 21.0
e 149 162 26.0
e 149 177 41.0
e 149 131 35.0
e 149 9 37.0
e 149 212 18.0
e 149 167 4.0
e 149 204 49.0
e 149 217 14.0
e 149 215 24.0
e 149 208 2.0
e 149 263 18.0
e 149 209 13.0
e 149 168 29.0
e 149 190 42.0
e 149 169 3.0
e 149 221 34.0
e 149 14 10.0
e 149 170 1.0
e 149 309 36.0
e 149 295 34.0
e 149 227 22.0
e 149 225 11.0
e 149 70 48.0
e 149 46 19.0
e 149 211 5.0
e 149 64 17.0
e 149 188 9.0
e 149 86 24.0
e 149 274 13.0
e 149 55 17.0
e 149 88 15.0
e 149 297 5.0
e 150 225 2.0
e 150 124 1.0
e 150 120 2.0
e 151 198 1.0
e 152 146 1.0
e 153 256 1.0
e 154 18 3.0
e 154 25 1.0
e 154 155 3.0
e 154 14 2.0
e 155 37 1.0
e 155 170 5.0
e 155 276 1.0
e 155 51 3.0
e 155 104 4.0
e 155 197 3.0
e 155 30 3.0
e 155 216 3.0
e 156 98 3.0
e 156 139 9.0
e 156 232 5.0
e 156 212 2.0
e 156 218 1.0
e 156 266 3.0
e 156 35 5.0
e 156 73 1.0
e 156 109 7.0
e 156 189 5.0
e 157 234 14.0
e 157 13 1.0
e 157 290 1.0
e 158 14 4.0
e 158 315 38.0
e 159 220 1.0
e 159 8 1.0
e 160 117 1.0
e 161 149 34.0
e 161 191 1.0
e 161 3 8.0
e 161 175 8.0
e 161 17 11.0
e 161 79 10.0
e 161 267 5.0
e 161 112 9.0
e 161 266 5.0
e 161 19 5.0
e 161 5 4.0
e 161 18 7.0
e 161 236 7.0
e 161 91 8.0
e 161 99 8.0
e 161 230 3.0
e 161 120 11.0
e 161 205 4.0
e 162 205 1.0
e 163 199 2.0
e 164 169 1.0
e 165 153 1.0
e 166 47 2.0
e 166 243 33.0
e 166 102 2.0
e 167 318 3.0
e 168 150 2.0
e 169 62 1.0
e 170 291 1.0
e 171 300 3.0
e 172 263 1.0
e 172 162 2.0
e 173 163 1.0
e 174 211 2.0
e 174 150 2.0
e 175 249 1.0
e 176 66 1.0
e 176 178 1.0
e 177 302 1.0
e 177 187 2.0
e 177 315 7.0
e 178 92 1.0
e 179 257 1.0
e 180 270 1.0
e 181 140 1.0
e 182 115 1.0
e 183 244 1.0
e 184 33 1.0
e 185 56 1.0
e 185 64 1.0
e 185 88 3.0
e 186 184 2.0
e 187 176 1.0
e 188 74 1.0
e 189 267 1.0
e 190 31 2.0
e 190 29 1.0
e 190 225 1.0
e 191 65 1.0
e 191 141 1.0
e 192 130 1.0
e 193 103 2.0
e 193 232 1.0
e 193 62 2.0
e 194 70 1.0
e 195 57 2.0
e 195 317 1.0
e 195 298 1.0
e 196 312 12.0
e 196 306 12.0
e 196 192 10.0
e 196 108 6.0
e 196 170 1.0
e 196 43 4.0
e 196 6 5.0
e 196 83 6.0
e 196 247 9.0
e 196 107 5.0
e 196 38 2.0
e 196 39 4.0
e 196 307 2.0
e 196 258 10.0
e 196 136 2.0
e 196 292 1.0
e 196 133 1.0
e 196 70 1.0
e 197 249 1.0
e 197 27 2.0
e 198 70 1.0
e 199 166 1.0
e 200 257 1.0
e 201 113 46.0
e 201 161 5.0
e 201 45 8.0
e 201 37 7.0
e 201 137 5.0
e 201 31 1.0
e 201 136 9.0
e 201 302 1.0
e 201 92 2.0
e 201 305 3.0
e 201 283 10.0
e 201 156 9.0
e 201 102 1.0
e 201 58 5.0
e 201 157 4.0
e 201 22 1.0
e 201 91 6.0
e 202 5 2.0
e 203 138 2.0
e 203 40 1.0
e 204 249 1.0
e 205 78 2.0
e 206 171 1.0
e 207 59 1.0
e 208 122 1.0
e 209 127 2.0
e 210 182 1.0
e 210 220 2.0
e 210 217 1.0
e 210 83 17.0
e 210 37 1.0
e 211 89 5.0
e 211 143 1.0
e 211 109 49.0
e 212 228 6.0
e 212 315 7.0
e 212 146 3.0
e 212 42 8.0
e 212 204 2.0
e 212 31 1.0
e 213 223 2.0
e 214 191 1.0
e 215 221 2.0
e 216 240 9.0
e 216 101 2.0
e 216 295 32.0
e 216 134 4.0
e 217 118 1.0
e 218 165 1.0
e 218 249 3.0
e 218 201 9.0
e 218 207 5.0
e 218 296 1.0
e 218 37 4.0
e 218 259 2.0
e 218 36 6.0
e 219 120 2.0
e 219 295 23.0
e 219 259 2.0
e 219 205 1.0
e 220 148 1.0
e 220 219 2.0
e 220 146 3.0
e 221 192 1.0
e 222 168 1.0
e 222 15 1.0
e 223 48 2.0
e 223 105 1.0
e 224 238 1.0
e 225 58 1.0
e 226 266 1.0
e 226 96 2.0
e 227 108 2.0
e 228 62 21.0
e 228 229 4.0
e 228 153 30.0
e 228 122 5.0
e 228 108 39.0
e 228 240 22.0
e 228 58 5.0
e 228 261 28.0
e 228 192 17.0
e 228 95 22.0
e 228 34 35.0
e 228 12 10.0
e 228 314 8.0
e 228 214 35.0
e 228 76 37.0
e 228 175 44.0
e 228 100 28.0
e 228 115 19.0
e 228 113 47.0
e 228 265 44.0
e 228 111 22.0
e 228 235 36.0
e 228 251 38.0
e 228 220 36.0
e 228 91 48.0
e 228 217 25.0
e 228 215 9.0
e 228 110 46.0
e 228 199 3.0
e 228 255 29.0
e 228 65 32.0
e 228 315 2.0
e 228 148 33.0
e 228 195 1.0
e 228 134 22.0
e 228 274 2.0
e 228 120 11.0
e 228 257 40.0
e 228 275 16.0
e 228 47 48.0
e 228 218 12.0
e 228 260 40.0
e 228 231 13.0
e 228 241 1.0
e 228 149 19.0
e 228 236 2.0
e 228 183 45.0
e 228 162 30.0
e 228 121 47.0
e 228 239 31.0
e 228 163 19.0
e 228 160 45.0
e 228 77 46.0
e 228 118 13.0
e 228 302 41.0
e 228 130 24.0
e 228 139 36.0
e 228 317 40.0
e 228 230 15.0
e 228 262 1.0
e 228 56 21.0
e 228 232 39.0
e 228 200 28.0
e 228 55 44.0
e 228 298 8.0
e 228 205 32.0
e 228 144 32.0
e 228 282 6.0
e 228 66 25.0
e 228 264 9.0
e 228 266 6.0
e 228 291 22.0
e 228 13 27.0
e 228 245 10.0
e 228 129 48.0
e 229 37 1.0
e 230 164 2.0
e 231 113 35.0
e 231 201 6.0
e 231 129 1.0
e 231 58 2.0
e 231 126 1.0
e 231 203 3.0
e 231 48 1.0
e 232 289 1.0
e 233 28 1.0
e 234 63 19.0
e 234 166 4.0
e 234 231 39.0
e 234 125 3.0
e 234 116 4.0
e 234 72 43.0
e 234 142 42.0
e 234 286 12.0
e 234 167 34.0
e 234 162 30.0
e 234 250 34.0
e 234 228 32.0
e 234 24 48.0
e 234 56 4.0
e 234 232 4.0
e 234 58 2.0
e 234 111 39.0
e 234 307 46.0
e 234 18 9.0
e 234 13 16.0
e 234 113 11.0
e 234 190 35.0
e 234 23 7.0
e 234 248 15.0
e 234 222 44.0
e 234 54 7.0
e 234 99 18.0
e 234 235 18.0
e 234 85 6.0
e 234 102 41.0
e 234 146 28.0
e 234 84 32.0
e 234 244 26.0
e 234 194 23.0
e 234 34 48.0
e 234 306 49.0
e 234 271 36.0
e 234 270 15.0
e 234 86 29.0
e 234 143 30.0
e 234 207 18.0
e 234 289 24.0
e 234 68 19.0
e 234 126 30.0
e 234 198 22.0
e 234 193 44.0
e 234 81 43.0
e 234 43 7.0
e 234 227 43.0
e 234 121 34.0
e 234 103 34.0
e 234 137 31.0
e 234 245 8.0
e 234 285 19.0
e 234 112 30.0
e 234 7 28.0
e 234 51 13.0
e 234 64 23.0
e 234 100 27.0
e 234 242 15.0
e 234 67 21.0
e 234 49 29.0
e 234 29 42.0
e 234 177 29.0
e 234 33 28.0
e 234 163 14.0
e 234 71 35.0
e 234 73 43.0
e 234 249 33.0
e 234 147 48.0
e 234 55 27.0
e 234 233 34.0
e 234 236 13.0
e 235 239 2.0
e 236 306 4.0
e 236 144 2.0
e 236 13 3.0
e 236 58 5.0
e 236 110 4.0
e 237 58 3.0
e 238 20 2.0
e 239 283 1.0
e 239 296 2.0
e 239 46 5.0
e 239 299 5.0
e 239 259 4.0
e 239 234 47.0
e 240 79 44.0
e 240 208 17.0
e 240 41 49.0
e 240 32 42.0
e 240 199 11.0
e 240 211 23.0
e 240 29 1.0
e 240 95 37.0
e 240 305 18.0
e 240 274 35.0
e 240 202 47.0
e 240 24 22.0
e 240 272 39.0
e 240 57 26.0
e 240 56 31.0
e 240 14 21.0
e 240 31 16.0
e 240 161 39.0
e 240 15 38.0
e 240 146 39.0
e 240 285 34.0
e 240 255 10.0
e 240 270 19.0
e 240 47 43.0
e 240 256 20.0
e 240 0 32.0
e 240 6 13.0
e 240 126 18.0
e 240 67 31.0
e 240 42 2.0
e 240 197 35.0
e 240 134 42.0
e 240 154 9.0
e 240 295 35.0
e 240 183 3.0
e 240 309 31.0
e 240 64 33.0
e 240 18 11.0
e 240 30 39.0
e 240 306 39.0
e 240 80 37.0
e 240 247 34.0
e 240 52 10.0
e 240 12 8.0
e 240 198 48.0
e 240 203 36.0
e 240 186 17.0
e 240 253 17.0
e 240 82 40.0
e 240 307 7.0
e 240 103 33.0
e 240 129 4.0
e 240 48 29.0
e 240 312 45.0
e 240 91 28.0
e 240 4 8.0
e 240 58 38.0
e 240 59 11.0
e 240 304 48.0
e 240 205 29.0
e 240 298 6.0
e 240 271 24.0
e 240 263 36.0
e 240 289 17.0
e 240 200 49.0
e 240 78 20.0
e 240 43 30.0
e 240 88 13.0
e 240 268 43.0
e 240 193 23.0
e 240 257 26.0
e 240 210 43.0
e 240 147 34.0
e 240 223 15.0
e 240 217 49.0
e 240 275 29.0
e 240 86 37.0
e 241 49 28.0
e 241 152 9.0
e 241 114 1.0
e 241 174 7.0
e 241 34 1.0
e 241 25 1.0
e 241 57 5.0
e 241 156 7.0
e 241 206 1.0
e 241 147 1.0
e 241 58 8.0
e 241 264 8.0
e 241 54 2.0
e 241 244 7.0
e 241 315 44.0
e 241 55 1.0
e 241 186 2.0
e 242 109 25.0
e 242 18 31.0
e 242 103 8.0
e 242 10 32.0
e 242 54 23.0
e 242 249 18.0
e 242 96 46.0
e 242 48 6.0
e 242 50 21.0
e 242 112 5.0
e 242 283 49.0
e 242 99 27.0
e 242 176 41.0
e 242 147 31.0
e 242 2 22.0
e 242 157 25.0
e 242 269 31.0
e 242 122 28.0
e 242 254 38.0
e 242 284 20.0
e 242 317 44.0
e 242 25 35.0
e 242 148 37.0
e 242 36 25.0
e 242 44 36.0
e 242 72 24.0
e 242 61 19.0
e 242 5 23.0
e 242 285 29.0
e 242 158 47.0
e 242 38 5.0
e 242 20 18.0
e 242 55 46.0
e 242 185 22.0
e 242 313 46.0
e 242 236 2.0
e 242 6 8.0
e 242 288 35.0
e 242 21 39.0
e 242 195 22.0
e 242 90 16.0
e 242 244 40.0
e 242 93 38.0
e 242 129 25.0
e 242 114 48.0
e 242 159 38.0
e 242 281 21.0
e 242 168 4.0
e 242 312 22.0
e 242 160 6.0
e 242 194 25.0
e 242 246 14.0
e 242 257 10.0
e 242 0 28.0
e 242 294 39.0
e 242 51 35.0
e 242 4 49.0
e 242 65 7.0
e 242 106 21.0
e 242 179 4.0
e 242 235 34.0
e 242 264 11.0
e 242 120 5.0
e 242 27 16.0
e 242 149 1.0
e 242 45 30.0
e 242 30 18.0
e 242 169 21.0
e 242 85 7.0
e 242 11 8.0
e 242 268 21.0
e 242 161 42.0
e 242 110 19.0
e 242 57 31.0
e 242 299 19.0
e 242 59 22.0
e 243 283 8.0
e 243 25 31.0
e 243 163 21.0
e 243 294 8.0
e 243 246 33.0
e 243 193 40.0
e 243 111 20.0
e 243 263 29.0
e 243 222 11.0
e 243 109 11.0
e 243 269 12.0
e 243 302 17.0
e 243 1 14.0
e 243 279 11.0
e 243 79 35.0
e 243 148 2.0
e 243 271 5.0
e 243 66 38.0
e 243 177 21.0
e 243 233 30.0
e 243 59 4.0
e 243 140 9.0
e 243 273 14.0
e 243 67 38.0
e 243 144 12.0
e 243 311 6.0
e 243 41 24.0
e 243 2 16.0
e 243 256 36.0
e 243 133 25.0
e 243 135 43.0
e 243 154 23.0
e 243 198 3.0
e 243 235 25.0
e 243 164 16.0
e 243 136 47.0
e 243 192 3.0
e 243 30 29.0
e 243 145 4.0
e 243 259 12.0
e 243 126 41.0
e 243 8 34.0
e 243 162 46.0
e 243 229 26.0
e 243 221 34.0
e 243 167 44.0
e 243 265 17.0
e 243 116 2.0
e 243 80 8.0
e 243 196 21.0
e 243 14 44.0
e 243 218 2.0
e 243 76 47.0
e 243 23 7.0
e 243 208 34.0
e 243 89 34.0
e 243 110 18.0
e 243 240 25.0
e 243 84 3.0
e 243 94 26.0
e 243 97 20.0
e 243 272 49.0
e 243 15 46.0
e 243 35 23.0
e 243 241 17.0
e 243 139 2.0
e 243 234 12.0
e 243 223 13.0
e 243 155 10.0
e 243 124 28.0
e 243 199 12.0
e 243 176 13.0
e 243 219 42.0
e 243 216 35.0
e 243 141 46.0
e 243 184 37.0
e 243 33 33.0
e 243 178 43.0
e 243 103 35.0
e 244 68 1.0
e 245 303 1.0
e 246 186 1.0
e 247 223 2.0
e 248 152 1.0
e 248 243 25.0
e 249 63 1.0
e 250 5 2.0
e 251 172 1.0
e 252 154 2.0
e 252 301 1.0
e 252 77 1.0
e 252 89 4.0
e 252 130 2.0
e 253 260 1.0
e 254 123 1.0
e 255 209 1.0
e 256 271 1.0
e 257 123 1.0
e 258 126 1.0
e 259 297 26.0
e 260 179 1.0
e 261 260 1.0
e 262 7 1.0
e 263 118 1.0
e 264 38 2.0
e 265 118 1.0
e 266 244 1.0
e 267 310 1.0
e 268 246 1.0
e 269 93 1.0
e 270 311 1.0
e 271 94 9.0
e 271 116 6.0
e 271 233 49.0
e 271 107 38.0
e 271 313 28.0
e 271 29 5.0
e 271 6 49.0
e 271 39 26.0
e 271 27 7.0
e 271 186 38.0
e 271 130 12.0
e 271 250 16.0
e 271 120 31.0
e 271 138 38.0
e 271 214 48.0
e 271 190 2.0
e 271 187 28.0
e 271 74 18.0
e 271 291 35.0
e 271 189 40.0
e 271 88 30.0
e 271 289 7.0
e 271 84 32.0
e 271 40 23.0
e 271 253 6.0
e 271 182 39.0
e 271 223 7.0
e 271 9 27.0
e 271 224 21.0
e 271 255 12.0
e 271 215 7.0
e 271 82 48.0
e 271 154 28.0
e 271 12 45.0
e 271 308 46.0
e 271 284 6.0
e 271 121 34.0
e 271 8 6.0
e 271 173 33.0
e 271 301 13.0
e 271 295 41.0
e 271 89 10.0
e 271 246 35.0
e 271 305 2.0
e 271 19 7.0
e 271 38 29.0
e 271 122 36.0
e 271 196 3.0
e 271 163 19.0
e 271 141 33.0
e 271 152 45.0
e 271 144 26.0
e 271 241 27.0
e 271 262 11.0
e 271 22 28.0
e 271 78 41.0
e 271 72 16.0
e 271 207 20.0
e 271 139 38.0
e 271 148 34.0
e 271 37 16.0
e 271 158 19.0
e 271 299 46.0
e 271 151 38.0
e 271 193 10.0
e 271 67 31.0
e 271 42 20.0
e 271 147 33.0
e 271 123 1.0
e 271 32 5.0
e 271 73 8.0
e 271 11 46.0
e 271 312 29.0
e 272 135 1.0
e 273 155 6.0
e 273 43 45.0
e 273 73 9.0
e 273 119 8.0
e 273 37 18.0
e 273 152 26.0
e 273 122 6.0
e 273 91 27.0
e 273 208 31.0
e 273 124 10.0
e 273 96 36.0
e 273 209 38.0
e 273 92 47.0
e 273 141 44.0
e 273 274 49.0
e 273 233 32.0
e 273 227 49.0
e 273 275 16.0
e 273 6 44.0
e 273 216 5.0
e 273 264 19.0
e 273 116 44.0
e 273 52 34.0
e 273 234 11.0
e 273 74 45.0
e 273 48 8.0
e 273 9 31.0
e 273 176 3.0
e 273 187 37.0
e 273 265 42.0
e 273 172 19.0
e 273 242 18.0
e 273 206 39.0
e 273 195 33.0
e 273 213 25.0
e 273 298 28.0
e 273 192 28.0
e 273 79 29.0
e 273 191 34.0
e 273 300 10.0
e 273 133 14.0
e 273 103 25.0
e 273 212 3.0
e 273 63 4.0
e 273 93 48.0
e 273 304 19.0
e 273 36 23.0
e 273 240 10.0
e 273 215 38.0
e 273 205 9.0
e 273 248 14.0
e 273 276 16.0
e 273 101 31.0
e 273 156 44.0
e 273 2 27.0
e 273 237 7.0
e 273 23 29.0
e 273 317 19.0
e 273 197 15.0
e 273 301 25.0
e 273 296 45.0
e 273 5 5.0
e 273 286 14.0
e 273 131 29.0
e 273 246 20.0
e 273 94 35.0
e 273 251 33.0
e 273 214 14.0
e 273 114 1.0
e 273 111 16.0
e 273 95 30.0
e 273 292 26.0
e 273 104 13.0
e 273 110 19.0
e 273 228 2.0
e 273 4 43.0
e 273 305 22.0
e 273 193 24.0
e 274 283 2.0
e 275 217 1.0
e 277 248 2.0
e 278 206 2.0
e 279 249 1.0
e 280 115 1.0
e 281 313 1.0
e 282 35 1.0
e 283 198 2.0
e 284 109 4.0
e 285 21 1.0
e 286 262 1.0
e 287 247 1.0
e 288 278 1.0
e 289 114 1.0
e 290 125 2.0
e 291 59 1.0
e 292 94 2.0
e 293 245 1.0
e 294 301 1.0
e 295 218 9.0
e 295 279 35.0
e 295 96 25.0
e 295 151 15.0
e 295 300 32.0
e 295 158 8.0
e 295 114 3.0
e 295 99 6.0
e 295 153 15.0
e 295 201 23.0
e 295 237 10.0
e 295 120 11.0
e 295 220 17.0
e 295 273 20.0
e 295 28 34.0
e 295 202 40.0
e 295 77 2.0
e 295 189 27.0
e 295 67 22.0
e 295 36 21.0
e 295 247 6.0
e 295 193 26.0
e 295 255 1.0
e 295 7 30.0
e 295 170 36.0
e 295 29 36.0
e 295 108 3.0
e 295 152 42.0
e 295 298 25.0
e 295 63 36.0
e 295 286 42.0
e 295 64 44.0
e 295 221 28.0
e 295 132 33.0
e 295 230 47.0
e 295 208 49.0
e 295 102 23.0
e 295 15 7.0
e 295 173 10.0
e 295 159 4.0
e 295 82 36.0
e 295 31 1.0
e 295 169 10.0
e 295 78 43.0
e 295 203 39.0
e 295 191 43.0
e 295 192 23.0
e 295 14 14.0
e 295 39 32.0
e 295 42 24.0
e 295 73 25.0
e 295 93 8.0
e 295 147 26.0
e 295 282 48.0
e 295 209 34.0
e 295 154 24.0
e 295 194 37.0
e 295 11 32.0
e 295 85 48.0
e 295 47 27.0
e 295 27 35.0
e 295 21 48.0
e 295 210 15.0
e 295 92 13.0
e 295 253 3.0
e 295 250 40.0
e 295 155 22.0
e 295 175 42.0
e 295 25 16.0
e 296 184 1.0
e 296 45 2.0
e 297 0 21.0
e 297 162 48.0
e 297 104 24.0
e 297 250 15.0
e 297 7 18.0
e 297 268 46.0
e 297 238 25.0
e 297 223 25.0
e 297 160 42.0
e 297 293 4.0
e 297 249 29.0
e 297 121 37.0
e 297 220 28.0
e 297 134 28.0
e 297 131 38.0
e 297 256 37.0
e 297 142 15.0
e 297 164 17.0
e 297 295 2.0
e 297 177 31.0
e 297 136 10.0
e 297 234 25.0
e 297 4 43.0
e 297 24 30.0
e 297 92 33.0
e 297 129 13.0
e 297 35 3.0
e 297 61 20.0
e 297 283 10.0
e 297 290 48.0
e 297 57 13.0
e 297 60 46.0
e 297 206 25.0
e 297 303 48.0
e 297 105 21.0
e 297 237 5.0
e 297 74 20.0
e 297 165 37.0
e 297 275 20.0
e 297 95 48.0
e 297 40 32.0
e 297 108 18.0
e 297 221 35.0
e 297 307 26.0
e 297 111 46.0
e 297 72 11.0
e 297 140 17.0
e 297 225 29.0
e 297 153 27.0
e 297 217 6.0
e 297 29 44.0
e 297 306 49.0
e 297 2 23.0
e 297 159 29.0
e 297 130 27.0
e 297 180 34.0
e 297 285 31.0
e 297 150 31.0
e 297 158 21.0
e 297 154 19.0
e 297 246 14.0
e 297 43 39.0
e 297 155 16.0
e 297 296 6.0
e 297 218 44.0
e 297 44 1.0
e 297 262 43.0
e 297 211 33.0
e 297 137 36.0
e 297 207 23.0
e 297 30 14.0
e 297 267 24.0
e 297 36 31.0
e 297 87 41.0
e 297 272 33.0
e 297 113 45.0
e 297 33 26.0
e 297 194 11.0
e 297 96 34.0
e 298 48 1.0
e 299 214 1.0
e 300 244 1.0
e 301 74 1.0
e 302 124 1.0
e 303 51 2.0
e 304 25 1.0
e 305 209 1.0
e 306 181 1.0
e 307 5 1.0
e 308 146 1.0
e 309 186 1.0
e 309 165 1.0
e 309 15 1.0
e 310 69 1.0
e 311 314 1.0
e 312 236 48.0
e 312 151 10.0
e 312 229 16.0
e 312 161 3.0
e 312 94 39.0
e 312 14 8.0
e 312 186 43.0
e 312 89 39.0
e 312 288 6.0
e 312 134 37.0
e 312 152 35.0
e 312 100 10.0
e 312 20 35.0
e 312 17 44.0
e 312 258 22.0
e 312 315 38.0
e 312 200 20.0
e 312 253 9.0
e 312 153 4.0
e 312 168 20.0
e 312 154 41.0
e 312 170 29.0
e 312 297 18.0
e 312 277 29.0
e 312 70 18.0
e 312 48 4.0
e 312 109 34.0
e 312 169 18.0
e 312 4 8.0
e 312 237 43.0
e 312 227 46.0
e 312 135 46.0
e 312 274 36.0
e 312 259 17.0
e 312 264 30.0
e 312 167 38.0
e 312 68 28.0
e 312 304 14.0
e 312 121 15.0
e 312 210 40.0
e 312 244 22.0
e 312 231 45.0
e 312 83 4.0
e 312 249 12.0
e 312 212 35.0
e 312 247 22.0
e 312 142 6.0
e 312 194 23.0
e 312 71 39.0
e 312 238 32.0
e 312 294 40.0
e 312 267 9.0
e 312 11 48.0
e 312 185 5.0
e 312 213 35.0
e 312 101 28.0
e 312 251 3.0
e 312 298 42.0
e 312 239 13.0
e 312 60 29.0
e 312 136 5.0
e 312 228 8.0
e 312 125 16.0
e 312 233 1.0
e 312 12 13.0
e 312 1 28.0
e 312 102 11.0
e 312 129 45.0
e 312 85 27.0
e 312 49 30.0
e 312 255 26.0
e 312 57 8.0
e 312 139 12.0
e 312 156 13.0
e 312 155 14.0
e 312 171 45.0
e 313 139 10.0
e 314 19 1.0
e 315 125 6.0
e 315 296 42.0
e 315 144 12.0
e 315 26 30.0
e 315 283 27.0
e 315 191 34.0
e 315 143 25.0
e 315 82 4.0
e 315 285 7.0
e 315 273 22.0
e 315 20 45.0
e 315 37 24.0
e 315 223 28.0
e 315 111 22.0
e 315 297 34.0
e 315 35 7.0
e 315 189 49.0
e 315 102 22.0
e 315 180 8.0
e 315 113 32.0
e 315 99 14.0
e 315 6 28.0
e 315 50 2.0
e 315 94 3.0
e 315 266 29.0
e 315 100 39.0
e 315 186 44.0
e 315 243 48.0
e 315 81 34.0
e 315 182 32.0
e 315 64 20.0
e 315 278 19.0
e 315 166 8.0
e 315 233 31.0
e 315 85 44.0
e 315 205 34.0
e 315 127 13.0
e 315 137 18.0
e 315 187 8.0
e 315 287 38.0
e 315 44 48.0
e 315 220 17.0
e 315 152 34.0
e 315 298 48.0
e 315 146 8.0
e 315 122 37.0
e 315 169 42.0
e 315 190 31.0
e 315 106 40.0
e 315 156 40.0
e 315 114 35.0
e 315 289 21.0
e 315 181 12.0
e 315 275 49.0
e 315 258 44.0
e 315 138 17.0
e 315 14 32.0
e 315 60 35.0
e 315 132 44.0
e 315 229 46.0
e 315 248 36.0
e 315 110 35.0
e 315 172 27.0
e 315 256 49.0
e 315 170 29.0
e 315 11 13.0
e 315 139 2.0
e 315 310 2.0
e 315 213 44.0
e 315 83 8.0
e 315 95 8.0
e 315 308 35.0
e 316 112 1.0
e 317 213 2.0
e 318 45 1.0
e 319 30 1.0
e 319 24 2.0
e 319 73 2.0
